# Solution for model r5_t36_m7_4 Batch Number: 7
# Finished Task: 35 / 36
# Makespan: 630.0, Total Distance: 778.0, Total Time: 11.8817
# R O S F Batch
0 0 13 0.0 0.0 -1
1 1 12 0.0 0.0 -1
2 2 33 0.0 0.0 -1
3 3 30 0.0 0.0 -1
4 4 31 0.0 0.0 -1
5 1 -1 597.0 630.0 5
6 3 19 400.0 427.0 1
7 1 5 541.0 563.0 5
8 1 7 433.0 468.0 2
9 2 26 509.0 538.0 5
10 -1 -1 -1.0 -1.0 6
11 4 32 474.0 500.0 3
12 1 23 28.0 67.0 0
13 0 20 60.0 82.0 0
14 0 18 284.0 323.0 0
15 2 22 391.0 420.0 3
16 0 21 203.0 227.0 0
17 2 29 281.0 319.0 1
18 0 37 344.0 370.0 0
19 3 36 468.0 506.0 2
20 0 39 89.0 119.0 0
21 0 14 239.0 262.0 0
22 2 9 456.0 482.0 4
23 1 40 218.0 245.0 0
24 4 11 435.0 462.0 3
25 2 17 239.0 266.0 1
26 2 -1 547.0 568.0 6
27 3 -1 573.0 595.0 6
28 0 -1 420.0 448.0 4
29 2 15 352.0 384.0 2
30 3 34 248.0 282.0 0
31 4 24 382.0 408.0 0
32 4 -1 579.0 599.0 6
33 2 25 180.0 210.0 0
34 3 35 298.0 324.0 0
35 3 6 353.0 382.0 0
36 3 27 543.0 573.0 4
37 0 28 370.0 408.0 0
38 0 16 150.0 171.0 0
39 0 38 119.0 150.0 0
40 1 8 278.0 309.0 0
